c WARNING: for repeatability, setting FPU to use double precision
d VARIABLES            73340        
d CONSTRAINTS          294649       
c ============================[ Problem Statistics ]=============================
c |                                                                             |
c |  Number of variables:         73340                                         |
c |  Number of clauses:          294649                                         |
c |  Parse time:                   0.05 s                                       |
c |                                                                             |
c ============================[ Search Statistics ]==============================
c | Conflicts |          ORIGINAL         |          LEARNT          | Progress |
c |           |    Vars  Clauses Literals |    Limit  Clauses Lit/Cl |          |
c ===============================================================================
c |       100 |   54070   245019   598113 |    89840      100      7 | 26.275 % |
c |       250 |   54070   245019   598113 |    98824      250     40 | 26.275 % |
c |       475 |   54070   245019   598113 |   108706      475     39 | 26.275 % |
c |       812 |   54070   245019   598113 |   119577      812     64 | 26.275 % |
c |      1318 |   54070   245019   598113 |   131535     1318     94 | 26.275 % |
c |      2077 |   54070   245019   598113 |   144688     2077     87 | 26.275 % |
c |      3216 |   54070   245019   598113 |   159157     3216    107 | 26.275 % |
c |      4924 |   54070   245019   598113 |   175073     4924    104 | 26.275 % |
c |      7486 |   54070   245019   598113 |   192580     7486    137 | 26.275 % |
c |     11330 |   54070   245019   598113 |   211838    11330    146 | 26.275 % |
c |     17096 |   54070   245019   598113 |   233022    17096    152 | 26.275 % |
c |     25745 |   54063   244985   598031 |   256324    25744    155 | 26.284 % |
c |     38719 |   54063   244985   598031 |   281957    38718    159 | 26.284 % |
c |     58180 |   54063   244985   598031 |   310153    58179    172 | 26.284 % |
c |     87372 |   54063   244985   598031 |   341168    87371    169 | 26.284 % |
c |    131161 |   54063   244985   598031 |   375285   131160    159 | 26.284 % |
c |    196845 |   54063   244985   598031 |   412813   196844    154 | 26.284 % |
c |    295371 |   54063   244985   598031 |   454095   295370    143 | 26.284 % |
c |    443160 |   54063   244985   598031 |   499504   443159    142 | 26.284 % |
c |    664843 |   54063   244985   598031 |   549455   175851    103 | 26.284 % |
c |    997368 |   54063   244985   598031 |   604400   508376    122 | 26.284 % |
c |   1496156 |   54063   244985   598031 |   664840   385115    136 | 26.284 % |
c |   2244338 |   54063   244985   598031 |   731324   482219    108 | 26.284 % |
c |   3366612 |   54063   244985   598031 |   804457   169735     88 | 26.284 % |
c ===============================================================================
c restarts              : 8188
c conflicts             : 4568219        (2548 /sec)
c decisions             : 9306604        (0.00 % random) (5190 /sec)
c propagations          : 3861156238     (2153293 /sec)
c conflict literals     : 543203798      (30.92 % deleted)
d RESTARTS             8188
d FAILURES             4568219      
d NODES                9306604      
d BACKTRACKS           9306604      
d PROPAGATIONS         3861156238   
d NOGOODSIZE           118.91 
d MEMORY               726.00 
d TIME                 1793.14 

s UNKNOWN
